100 100 100
50
64 71 97
91 67 43
48 46 24
69 20 85
99 92 63
79 38 88
8 98 93
53 92 96
83 98 62
71 98 66
67 87 98
72 82 74
78 79 43
52 87 96
81 91 59
72 75 95
66 52 50
70 75 58
46 31 34
45 45 32
61 92 78
4 91 73
76 35 86
77 50 70
70 93 56
96 69 41
93 100 92
23 84 80
59 51 87
27 74 96
92 73 13
97 31 69
99 79 72
87 88 28
41 77 69
76 74 54
16 74 81
71 84 94
95 51 92
68 100 20
89 80 66
16 81 97
96 79 51
76 5 72
61 96 100
96 83 52
50 78 74
33 66 91
57 74 86
1 84 70
